
  32    4
  10   10   10   10

   0   0   0   0   0   1 2 
   1  10  10  10  10   2 13 3 
   9  10  10  10  10   2 15 4 
   5  10  10  10  10   2 31 5 
   6  10  10  10  10   1 6 
   6  10  10  10  10   3 30 29 7 
   2  10  10  10  10   1 8 
   5  10  10  10  10   1 9 
   9  10  10  10  10   1 10 
   1  10  10  10  10   2 28 11 
   1  10  10  10  10   1 12 
   7  10  10  10  10   1 14 
   1  10  10  10  10   1 15 
   9  10  10  10  10   1 16 
   2  10  10  10  10   1 16 
   3  10  10  10  10   2 27 17 
   2  10  10  10  10   1 18 
   3  10  10  10  10   1 19 
   7  10  10  10  10   2 26 20 
   9  10  10  10  10   2 25 21 
  10  10  10  10  10   1 22 
   2  10  10  10  10   1 23 
   2  10  10  10  10   1 24 
   1  10  10  10  10   1 32
   7  10  10  10  10   1 32
   1  10  10  10  10   1 32
  10  10  10  10  10   1 32
   5  10  10  10  10   1 32
   5  10  10  10  10   1 32
   7  10  10  10  10   1 32
   3  10  10  10  10   1 32
   0   0   0   0   0   0 
